! dft cc-pVQZ TightSCF
%pal nprocs 8 end

%loc
  LocMet NewBoys
  Occ true
end

%method
  exchange gga_x_b88
  correlation None
end

%elprop
  Dipole true
  Quadrupole true
end

* xyz 0 2
Li    0.000000000000   0.000000000000  -1.074850000000
S    0.000000000000   0.000000000000   1.074850000000
*

