! dft cc-pVQZ TightSCF
%pal nprocs 8 end

%loc
  LocMet NewBoys
  Occ true
end

%method
  exchange gga_x_b88
  correlation None
end

%elprop
  Dipole true
  Quadrupole true
end

* xyz 0 1
C    0.000000000000   0.154560000000   0.000000000000
C    1.073776000000  -0.892748000000   0.000000000000
O    0.166384000000   1.360084000000   0.000000000000
O   -1.236449000000  -0.415036000000   0.000000000000
H   -1.867646000000   0.333582000000   0.000000000000
H    2.048189000000  -0.408135000000   0.000000000000
H    0.968661000000  -1.528353000000   0.881747000000
H    0.968661000000  -1.528353000000  -0.881747000000
*

