! dft def2-SVP TightSCF
%pal nprocs 8 end

%loc
  LocMet NewBoys
  Occ true
end

%method
  exchange None
  correlation gga_c_pw91
end

%elprop
  Dipole true
  Quadrupole true
end

* xyz 0 2
P    0.000000000000   0.000000000000   0.287900000000
O    0.000000000000   1.356300000000  -0.269900000000
O    0.000000000000  -1.356300000000  -0.269900000000
*

