! dft def2-QZVP TightSCF
%pal nprocs 8 end

%loc
  LocMet NewBoys
  Occ true
end

%method
  exchange gga_x_pw91
  correlation None
end

%elprop
  Dipole true
  Quadrupole true
end

* xyz 0 1
O    0.000000000000   0.737500000000  -0.052800000000
O    0.000000000000  -0.737500000000  -0.052800000000
H    0.819000000000   0.817000000000   0.422000000000
H   -0.819000000000  -0.817000000000   0.422000000000
*

