! dft aug-cc-pVQZ TightSCF
%pal nprocs 8 end

%loc
  LocMet NewBoys
  Occ true
end

%method
  exchange None
  correlation gga_c_pbe
end

%elprop
  Dipole true
  Quadrupole true
end

* xyz 0 3
P    0.000000000000   0.000000000000  -1.008800000000
Cl    0.000000000000   0.000000000000   1.008800000000
*

