! dft cc-pVDZ TightSCF
%pal nprocs 8 end

%loc
  LocMet NewBoys
  Occ true
end

%method
  functional pbe
end

%elprop
  Dipole true
end

* xyz 0 1
B    0.000000000000   0.000000000000  -0.633450000000
F    0.000000000000   0.000000000000   0.633450000000
*

