! dft cc-pVDZ TightSCF
%pal nprocs 8 end

%loc
  LocMet NewBoys
  Occ true
end

%method
  exchange gga_x_N12
  correlation None
end

%elprop
  Dipole true
  Quadrupole true
end

* xyz 0 3
P    0.000000000000   0.000000000000  -1.008800000000
Cl    0.000000000000   0.000000000000   1.008800000000
*

