! dft pc-2 TightSCF
%pal nprocs 8 end

%loc
  LocMet NewBoys
  Occ true
end

%method
  exchange None
  correlation gga_c_pbe
end

%elprop
  Dipole true
  Quadrupole true
end

* xyz 0 1
B    0.000000000000   0.000000000000  -0.633450000000
F    0.000000000000   0.000000000000   0.633450000000
*

