! dft def2-TZVP TightSCF
%pal nprocs 8 end

%loc
  LocMet NewBoys
  Occ true
end

%method
  exchange gga_x_pbe
end

%elprop
  Dipole true
end

* xyz 0 1
H    0.000000000000   0.000000000000  -0.616000000000
B    0.000000000000   0.000000000000   0.616000000000
*

