! dft pcseg-0 TightSCF
%pal nprocs 8 end

%loc
  LocMet NewBoys
  Occ true
end

%method
  exchange gga_x_b88
  correlation None
end

%elprop
  Dipole true
  Quadrupole true
end

* xyz 0 2
P    0.000000000000   0.000000000000   0.287900000000
O    0.000000000000   1.356300000000  -0.269900000000
O    0.000000000000  -1.356300000000  -0.269900000000
*

