! dft cc-pVTZ TightSCF
%pal nprocs 8 end

%loc
  LocMet NewBoys
  Occ true
end

%method
  exchange lda_x
  correlation None
end

%elprop
  Dipole true
  Quadrupole true
end

* xyz 0 1
Si    0.000000000000   0.000000000000   0.000000000000
H    0.000000000000   0.000000000000  -1.514100000000
H    0.000000000000   1.513200000000   0.052800000000
*

