! dft cc-pVDZ TightSCF
%pal nprocs 8 end

%loc
  LocMet NewBoys
  Occ true
end

%method
  exchange gga_x_N12
  correlation gga_c_N12
end

%elprop
  Dipole true
  Quadrupole true
end

* xyz 0 1
Si    0.000000000000   0.000000000000   0.000000000000
H    0.000000000000   0.000000000000  -1.514100000000
H    0.000000000000   1.513200000000   0.052800000000
*

