! dft cc-pVTZ TightSCF
%pal nprocs 8 end

%loc
  LocMet NewBoys
  Occ true
end

%method
  exchange None
  correlation gga_c_pbe
end

%elprop
  Dipole true
  Quadrupole true
end

* xyz 0 2
Li    0.000000000000   0.000000000000  -1.074850000000
S    0.000000000000   0.000000000000   1.074850000000
*

