! dft pc-4 TightSCF
%pal nprocs 8 end

%loc
  LocMet NewBoys
  Occ true
end

%method
  
  functional hyb_gga_xc_b97
end

%elprop
  Dipole true
  Quadrupole true
end

* xyz 0 1
H    0.000000000000   0.000000000000  -0.616000000000
B    0.000000000000   0.000000000000   0.616000000000
*

