! dft pc-4 TightSCF
%pal nprocs 8 end

%loc
  LocMet NewBoys
  Occ true
end

%method
  
  functional hyb_gga_xc_b97
end

%elprop
  Dipole true
  Quadrupole true
end

* xyz 0 1
C    0.000000000000   0.000000000000   1.632000000000
C    0.000000000000   0.000000000000   0.300000000000
C    0.000000000000   0.771000000000  -0.936300000000
C    0.000000000000  -0.771000000000  -0.936300000000
H    0.000000000000   0.914000000000   2.222200000000
H    0.000000000000  -0.914000000000   2.222200000000
H    0.912300000000   1.305900000000  -1.200300000000
H   -0.912300000000   1.305900000000  -1.200300000000
H   -0.912300000000  -1.305900000000  -1.200300000000
H    0.912300000000  -1.305900000000  -1.200300000000
*

